p cnf 36 26
-13 14 15 0
21 20 -19 0
9 3 5 0
8 18 12 0
3 6 14 0
3 20 27 12 29 0
-29 20 27 12 -3 0
19 5 30 0
-32 -13 -20 21 0
33 2 -26 25 0
-16 17 -35 7 0
18 35 28 0
40 17 22 0
24 -13 45 0
10 -25 0
26 27 -25 0
2 22 15 0
4 22 14 0
16 24 21 0
15 6 23 0
-46 -4 -18 0
1 -30 -28 9 -22 -21 -45 -11 -8 -4 29 -33 0
10 46 23 0
-30 8 9 11 -14 -12 27 0
-30 -29 8 -21 -16 -40 0
32 1 -30 11 12 -10 0
